submitit INFO (2023-05-02 18:51:25,325) - Starting with JobEnvironment(job_id=27744, hostname=cpunode3, local_rank=1(5), node=0(1), global_rank=1(5))
submitit INFO (2023-05-02 18:51:25,325) - Loading pickle: /h/30/pashootan/Matrix-Mult-CP/src/../logs/4/2x1x3_6_May02_18:51:23/27744_submitted.pkl
 ! --------------------------------------------------- CP Optimizer 22.1.1.0 --
 ! Satisfiability problem - 66 variables, 36 constraints
 ! TimeLimit            = 7200
 ! Workers              = 8
 ! LogPeriod            = 10000000
 ! RandomSeed           = 7678
 ! Initial process time : 0.00s (0.00s extraction + 0.00s propagation)
 !  . Log search space  : 104.6 (before), 104.6 (after)
 !  . Memory usage      : 366.6 kB (before), 366.6 kB (after)
 ! Using parallel search with 8 workers.
 ! ----------------------------------------------------------------------------
 !               Branches  Non-fixed    W       Branch decision
 *                   9185  0.11s        6        -1  = W2_0
 ! ----------------------------------------------------------------------------
 ! Search completed, 1 solution found.
 ! ----------------------------------------------------------------------------
 ! Number of branches     : 82185
 ! Number of fails        : 37815
 ! Total memory usage     : 6.5 MB (6.5 MB CP Optimizer + 0.0 MB Concert)
 ! Time spent in solve    : 0.12s (0.12s engine + 0.00s extraction)
 ! Search speed (br. / s) : 747136.3
 ! ----------------------------------------------------------------------------
Feasible
Model is valid
Saving solution to: /h/30/pashootan/Matrix-Mult-CP/logs/4/2x1x3_6_May02_18:51:23/27744_1_solution.txt
Saving stats to: /h/30/pashootan/Matrix-Mult-CP/logs/4/2x1x3_6_May02_18:51:23/27744_1_stats.csv
submitit INFO (2023-05-02 18:51:25,838) - Job completed successfully
